
  32    4
  10   10   10   10

   0   0   0   0   0   3 2 12 31 
   2   0   1   1   1   1 3 
   4   1   6   0   5   2 21 4 
   7   3   3   5   0   1 5 
   8   4   5   0   2   1 6 
   7   4   3   0   4   1 7 
  10   5   3   0   3   2 30 8 
   7   6   2   0   9   1 9 
   8   5   0   5   5   2 29 10 
   3   5   3   4   0   1 11 
   2   4   0   2   2   1 13 
   1   4   1   0   2   1 13 
   6   6   2   1   0   1 14 
   8   7   3   4   0   1 15 
   9   1   4   2   0   1 16 
   1   6   7   0   4   1 17 
   9   3   3   1   0   1 18 
   2   2   0   9   4   1 19 
   5   4   0   4   5   2 28 20 
   9   5   4   0   3   1 22 
   7   4   6   1   0   1 22 
   7   0   6   6   5   1 23 
   9   0   6   5   4   1 24 
   2   4   5   7   0   1 25 
  10   0   5   5   5   1 26 
   8   1   0   6   8   1 27 
   7   3   4   0   4   1 32
   7   8   0   4   1   1 32
   4   0   4   5   5   1 32
   3   2   8   0   3   1 32
   4   3   2   3   0   1 32
   0   0   0   0   0   0 
